c turning on binary mode checking
c parsing input formula with 259840 variables and 1039929 clauses
c finished parsing, read 5537460 bytes from proof file
c detected empty clause; start verification via backward checking
c 6082 of 1039929 clauses in core                            
c 1877 of 201917 lemmas in core using 65849 resolution steps
c 0 RAT lemmas in core; 259 redundant literals in core lemmas
s VERIFIED
c verification time: 1.662 seconds
